NPROCS=0
This instance is clustered!
Gurobi Optimizer version 9.0.0 build v9.0.0rc2 (linux64)
Optimize a model with 30 rows, 226 columns and 450 nonzeros
Model fingerprint: 0x892a99fb
Variable types: 1 continuous, 225 integer (225 binary)
Coefficient statistics:
  Matrix range     [1e+00, 1e+00]
  Objective range  [1e+00, 2e+02]
  Bounds range     [1e+00, 1e+00]
  RHS range        [1e+00, 1e+00]
 done with super cut 0
Presolve removed 2 rows and 42 columns
Presolve time: 0.00s
Presolved: 28 rows, 184 columns, 366 nonzeros
Variable types: 1 continuous, 183 integer (183 binary)

Root relaxation: objective 2.228849e+02, 20 iterations, 0.00 seconds
 done with super cut 1

    Nodes    |    Current Node    |     Objective Bounds      |     Work
 Expl Unexpl |  Obj  Depth IntInf | Incumbent    BestBd   Gap | It/Node Time

     0     0  298.19644    0    4          -  298.19644      -     -    0s
     0     0  305.59696    0   18          -  305.59696      -     -    0s
     0     0  313.52692    0   31          -  313.52692      -     -    0s
 done with super cut 2
 done with super cut 3
 done with super cut 4
H    0     0                     576.7883966  313.52692  45.6%     -    0s
 done with super cut 5
 done with super cut 6
H    0     0                     528.1046355  313.52692  40.6%     -    1s
     0     0  313.52692    0   31  528.10464  313.52692  40.6%     -    1s
 done with super cut 7
 done with super cut 8
 done with super cut 9
 done with super cut 10
H    0     0                     468.4073779  313.52692  33.1%     -    3s
     0     2  318.38747    0   30  468.40738  318.38747  32.0%     -    3s
*  457   324              20     467.9489978  332.25774  29.0%   5.7    3s
*  577   431              39     460.0279840  338.21587  26.5%   5.6    3s
* 1530   986              18     457.9783073  353.53885  22.8%   5.3    3s
H 3956  2089                     433.4170246  367.20596  15.3%   5.2    4s
  8970  1661     cutoff   39       433.41702  396.99581  8.40%   6.6    5s
H11605  1097                     433.4170066  408.61590  5.72%   7.1    5s

Cutting planes:
  Lazy constraints: 157

Explored 13771 nodes (103595 simplex iterations) in 5.89 seconds
Thread count was 12 (of 12 available processors)

Solution count 7: 433.417 457.978 460.028 ... 576.788

Optimal solution found (tolerance 1.00e-04)
Best objective 4.334170065905e+02, best bound 4.334170065905e+02, gap 0.0000%

User-callback calls 29197, time in user-callback 3.30 sec
/projects/academic/josewalt/caigao/RRARP_BD/BendersDecomp/ret/model_outs/n_13_h_1_algo_4.out
 =====>>>>> Solution is written to file in <../ret/model_outs> !!!
===>> All Done!
